Results/Experiment 2 Results/New Benchmark/output_p1_0.25_p2_0.00_n_40_19.lp
clingo version 5.4.0
Reading from tempSRTISolver.lp ...
Solving...
Answer: 1
matched(6,4) matched(8,5) matched(1,7) matched(5,8) matched(12,10) matched(9,11) matched(13,16) matched(19,18) matched(18,19) matched(16,13) matched(23,22) matched(22,23) matched(21,24) matched(24,21) matched(31,30) matched(29,32) matched(32,29) matched(35,34) matched(33,36) matched(40,37) matched(38,39) matched(37,40) matched(36,33) matched(2,3) matched(4,6) matched(10,12) matched(15,14) matched(20,17) matched(28,25) matched(26,27) matched(25,28) matched(39,38) matched(3,2) matched(17,20) matched(7,1) matched(14,15) matched(34,35) matched(27,26) matched(11,9) matched(30,31)
Optimization: 416
Answer: 2
matched(6,4) matched(8,5) matched(1,7) matched(5,8) matched(12,10) matched(9,11) matched(14,16) matched(19,18) matched(18,19) matched(20,13) matched(23,22) matched(22,23) matched(21,24) matched(24,21) matched(31,30) matched(29,32) matched(32,29) matched(35,34) matched(33,36) matched(40,37) matched(38,39) matched(37,40) matched(36,33) matched(2,3) matched(4,6) matched(10,12) matched(16,14) matched(15,17) matched(28,25) matched(26,27) matched(25,28) matched(39,38) matched(3,2) matched(13,20) matched(7,1) matched(17,15) matched(34,35) matched(27,26) matched(11,9) matched(30,31)
Optimization: 415
Answer: 3
matched(6,4) matched(8,5) matched(1,7) matched(5,8) matched(12,10) matched(9,11) matched(13,16) matched(14,18) matched(15,19) matched(16,13) matched(26,22) matched(27,23) matched(25,24) matched(28,21) matched(32,30) matched(30,32) matched(31,29) matched(35,34) matched(33,36) matched(40,37) matched(38,39) matched(37,40) matched(36,33) matched(2,3) matched(4,6) matched(10,12) matched(18,14) matched(20,17) matched(24,25) matched(23,27) matched(21,28) matched(39,38) matched(3,2) matched(17,20) matched(7,1) matched(19,15) matched(34,35) matched(22,26) matched(11,9) matched(29,31)
Optimization: 408
Answer: 4
matched(6,4) matched(8,5) matched(1,7) matched(5,8) matched(12,10) matched(9,11) matched(13,16) matched(19,18) matched(18,19) matched(16,13) matched(26,22) matched(27,23) matched(25,24) matched(28,21) matched(32,30) matched(30,32) matched(31,29) matched(35,34) matched(33,36) matched(40,37) matched(38,39) matched(37,40) matched(36,33) matched(2,3) matched(4,6) matched(10,12) matched(15,14) matched(20,17) matched(24,25) matched(23,27) matched(21,28) matched(39,38) matched(3,2) matched(17,20) matched(7,1) matched(14,15) matched(34,35) matched(22,26) matched(11,9) matched(29,31)
Optimization: 403
Answer: 5
matched(6,4) matched(8,5) matched(1,7) matched(5,8) matched(12,10) matched(9,11) matched(14,16) matched(19,18) matched(18,19) matched(20,13) matched(26,22) matched(27,23) matched(25,24) matched(28,21) matched(32,30) matched(30,32) matched(31,29) matched(35,34) matched(33,36) matched(40,37) matched(38,39) matched(37,40) matched(36,33) matched(2,3) matched(4,6) matched(10,12) matched(16,14) matched(15,17) matched(24,25) matched(23,27) matched(21,28) matched(39,38) matched(3,2) matched(13,20) matched(7,1) matched(17,15) matched(34,35) matched(22,26) matched(11,9) matched(29,31)
Optimization: 402
Answer: 6
matched(6,4) matched(8,5) matched(1,7) matched(5,8) matched(12,10) matched(9,11) matched(13,16) matched(19,18) matched(18,19) matched(16,13) matched(24,22) matched(25,23) matched(22,24) matched(28,21) matched(32,30) matched(30,32) matched(31,29) matched(35,34) matched(37,36) matched(36,37) matched(38,39) matched(33,40) matched(40,33) matched(2,3) matched(4,6) matched(10,12) matched(15,14) matched(20,17) matched(23,25) matched(26,27) matched(21,28) matched(39,38) matched(3,2) matched(17,20) matched(7,1) matched(14,15) matched(34,35) matched(27,26) matched(11,9) matched(29,31)
Optimization: 400
Answer: 7
matched(6,4) matched(8,5) matched(1,7) matched(5,8) matched(12,10) matched(9,11) matched(14,16) matched(19,18) matched(18,19) matched(20,13) matched(24,22) matched(25,23) matched(22,24) matched(28,21) matched(32,30) matched(30,32) matched(31,29) matched(35,34) matched(37,36) matched(36,37) matched(38,39) matched(33,40) matched(40,33) matched(2,3) matched(4,6) matched(10,12) matched(16,14) matched(15,17) matched(23,25) matched(26,27) matched(21,28) matched(39,38) matched(3,2) matched(13,20) matched(7,1) matched(17,15) matched(34,35) matched(27,26) matched(11,9) matched(29,31)
Optimization: 399
Answer: 8
matched(6,4) matched(8,5) matched(1,7) matched(5,8) matched(12,10) matched(9,11) matched(13,16) matched(19,18) matched(18,19) matched(16,13) matched(24,22) matched(25,23) matched(22,24) matched(28,21) matched(32,30) matched(30,32) matched(31,29) matched(35,34) matched(33,36) matched(40,37) matched(38,39) matched(37,40) matched(36,33) matched(2,3) matched(4,6) matched(10,12) matched(15,14) matched(20,17) matched(23,25) matched(26,27) matched(21,28) matched(39,38) matched(3,2) matched(17,20) matched(7,1) matched(14,15) matched(34,35) matched(27,26) matched(11,9) matched(29,31)
Optimization: 396
Answer: 9
matched(6,4) matched(8,5) matched(1,7) matched(5,8) matched(12,10) matched(9,11) matched(14,16) matched(19,18) matched(18,19) matched(20,13) matched(24,22) matched(25,23) matched(22,24) matched(28,21) matched(32,30) matched(30,32) matched(31,29) matched(35,34) matched(33,36) matched(40,37) matched(38,39) matched(37,40) matched(36,33) matched(2,3) matched(4,6) matched(10,12) matched(16,14) matched(15,17) matched(23,25) matched(26,27) matched(21,28) matched(39,38) matched(3,2) matched(13,20) matched(7,1) matched(17,15) matched(34,35) matched(27,26) matched(11,9) matched(29,31)
Optimization: 395
Answer: 10
matched(1,4) matched(8,5) matched(3,7) matched(5,8) matched(12,10) matched(9,11) matched(13,16) matched(19,18) matched(18,19) matched(16,13) matched(24,22) matched(25,23) matched(22,24) matched(28,21) matched(32,30) matched(30,32) matched(31,29) matched(35,34) matched(33,36) matched(40,37) matched(38,39) matched(37,40) matched(36,33) matched(7,3) matched(2,6) matched(10,12) matched(15,14) matched(20,17) matched(23,25) matched(26,27) matched(21,28) matched(39,38) matched(6,2) matched(17,20) matched(4,1) matched(14,15) matched(34,35) matched(27,26) matched(11,9) matched(29,31)
Optimization: 393
Answer: 11
matched(1,4) matched(8,5) matched(6,7) matched(5,8) matched(12,10) matched(9,11) matched(13,16) matched(19,18) matched(18,19) matched(16,13) matched(24,22) matched(25,23) matched(22,24) matched(28,21) matched(32,30) matched(30,32) matched(31,29) matched(35,34) matched(33,36) matched(40,37) matched(38,39) matched(37,40) matched(36,33) matched(2,3) matched(7,6) matched(10,12) matched(15,14) matched(20,17) matched(23,25) matched(26,27) matched(21,28) matched(39,38) matched(3,2) matched(17,20) matched(4,1) matched(14,15) matched(34,35) matched(27,26) matched(11,9) matched(29,31)
Optimization: 391
Answer: 12
matched(5,4) matched(4,5) matched(6,7) matched(1,8) matched(12,10) matched(9,11) matched(14,16) matched(19,18) matched(18,19) matched(20,13) matched(24,22) matched(25,23) matched(22,24) matched(28,21) matched(32,30) matched(30,32) matched(31,29) matched(38,34) matched(37,36) matched(36,37) matched(35,39) matched(33,40) matched(40,33) matched(2,3) matched(7,6) matched(10,12) matched(16,14) matched(15,17) matched(23,25) matched(26,27) matched(21,28) matched(34,38) matched(3,2) matched(13,20) matched(8,1) matched(17,15) matched(39,35) matched(27,26) matched(11,9) matched(29,31)
Optimization: 387
Answer: 13
matched(5,4) matched(4,5) matched(6,7) matched(1,8) matched(12,10) matched(9,11) matched(14,16) matched(19,18) matched(18,19) matched(20,13) matched(24,22) matched(25,23) matched(22,24) matched(28,21) matched(32,30) matched(30,32) matched(31,29) matched(38,34) matched(33,36) matched(40,37) matched(35,39) matched(37,40) matched(36,33) matched(2,3) matched(7,6) matched(10,12) matched(16,14) matched(15,17) matched(23,25) matched(26,27) matched(21,28) matched(34,38) matched(3,2) matched(13,20) matched(8,1) matched(17,15) matched(39,35) matched(27,26) matched(11,9) matched(29,31)
Optimization: 383
Answer: 14
matched(1,4) matched(8,5) matched(6,7) matched(5,8) matched(12,10) matched(9,11) matched(14,16) matched(19,18) matched(18,19) matched(20,13) matched(24,22) matched(25,23) matched(22,24) matched(28,21) matched(32,30) matched(30,32) matched(31,29) matched(38,34) matched(33,36) matched(40,37) matched(35,39) matched(37,40) matched(36,33) matched(2,3) matched(7,6) matched(10,12) matched(16,14) matched(15,17) matched(23,25) matched(26,27) matched(21,28) matched(34,38) matched(3,2) matched(13,20) matched(4,1) matched(17,15) matched(39,35) matched(27,26) matched(11,9) matched(29,31)
Optimization: 382
OPTIMUM FOUND

Models       : 14
  Optimum    : yes
Optimization : 382
Calls        : 1
Time         : 0.682s (Solving: 0.25s 1st Model: 0.00s Unsat: 0.11s)
CPU Time     : 0.590s
